15
-1 316 216 259 188 296 223 172 185 408 311 115 582 497 144 
316 -1 532 102 153 117 490 373 236 479 580 392 827 291 265 
216 532 -1 467 395 498 205 252 374 471 238 169 448 679 327 
259 102 467 -1 71 43 463 279 246 378 554 313 730 259 259 
188 153 395 71 -1 107 398 220 208 359 489 244 675 316 209 
296 117 498 43 107 -1 504 295 289 364 595 339 737 215 302 
223 490 205 463 398 504 -1 367 269 610 91 280 654 714 228 
172 373 252 279 220 295 367 -1 339 242 442 90 456 440 307 
185 236 374 246 208 289 269 339 -1 545 355 300 767 504 47 
408 479 471 378 359 364 610 242 545 -1 682 330 447 378 524 
311 580 238 554 489 595 91 442 355 682 -1 352 673 804 316 
115 392 169 313 244 339 280 90 300 330 352 -1 467 510 260 
582 827 448 730 675 737 654 456 767 447 673 467 -1 818 725 
497 291 679 259 316 215 714 440 504 378 804 510 818 -1 518 
144 265 327 259 209 302 228 307 47 524 316 260 725 518 -1 
